(set-logic QF_S)
(declare-fun var0 () String)
(declare-fun var1 () String)
(declare-fun var2 () String)
(declare-fun var3 () Int)
(declare-fun var4 () String)
(declare-fun var5 () Int)
(declare-fun var6 () Int)
(declare-fun var7 () Int)
(assert (> (str.len var0) (str.len var1)))
(assert (str.suffixof (str.at var2 var3) (str.substr var4 var5 var6)))
(assert (<= (str.indexof var2 var4 var7) (str.len var1)))
(assert (str.prefixof (str.at var0 151) (str.substr var0 var6 var7)))
(check-sat)